tsp_examples_bnb/convex_hull.tsp
NAME : linear
COMMENT : any
TYPE : TSP
DIMENSION: 20
EDGE_WEIGHT_TYPE : EUC_2D
NODE_COORD_SECTION
  1 177 177
  2 355 355
  3 381 381
  4 457 457
  5 632 632
  6 789 789
  7 164 0
  8 171 0
  9 387 0
 10 409 0
 11 1000 32
 12 1000 268
 13 1000 681
 14 1000 822
 15 1000 992
 16 993 993
 17 794 1000
 18 57 1000
 19 0 1000
 20 0 329
EOF
